* ENCODING=ISO-8859-1
NAME          CPLEX
ROWS
 N  obj1    
 G  c1      
 G  c2      
 G  c3      
 G  c4      
 G  c5      
 G  c6      
 G  c7      
 G  c8      
 G  c9      
 G  c10     
 G  c11     
 G  c12     
 G  c13     
 G  c14     
 G  c15     
 G  c16     
 G  c17     
 G  c18     
 G  c19     
 G  c20     
 G  c21     
 G  c22     
 G  c23     
 G  c24     
 G  c25     
 G  c26     
 G  c27     
 G  c28     
 G  c29     
 G  c30     
 G  c31     
 G  c32     
 G  c33     
 G  c34     
 G  c35     
 G  c36     
 G  c37     
 G  c38     
 G  c39     
 G  c40     
 G  c41     
 G  c42     
 G  c43     
 G  c44     
 G  c45     
 G  c46     
 G  c47     
 G  c48     
 G  c49     
 G  c50     
COLUMNS
    MARK0000  'MARKER'                 'INTORG'
    x1        obj1                            1
    x1        c2                            570
    x1        c13                           563
    x1        c31                           509
    x2        obj1                            1
    x2        c5                            302
    x2        c6                            930
    x2        c9                            728
    x2        c12                          1000
    x2        c19                           770
    x2        c39                           533
    x3        obj1                            1
    x3        c30                           517
    x3        c40                           897
    x3        c49                           656
    x4        obj1                            1
    x4        c9                            703
    x4        c16                           221
    x4        c31                           581
    x4        c32                           862
    x4        c36                           427
    x4        c43                           196
    x5        obj1                            1
    x5        c1                            207
    x5        c5                            304
    x5        c12                           784
    x5        c17                           916
    x5        c40                           630
    x6        obj1                            1
    x6        c7                            220
    x6        c9                            554
    x6        c20                           576
    x6        c27                           171
    x6        c29                           644
    x6        c30                           355
    x6        c34                           809
    x7        obj1                            1
    x7        c13                           125
    x7        c15                           292
    x7        c21                           595
    x7        c28                           706
    x7        c40                           295
    x7        c50                           574
    x8        obj1                            1
    x8        c14                           667
    x8        c19                           371
    x8        c34                           865
    x8        c35                           775
    x8        c38                           688
    x8        c46                           201
    x9        obj1                            1
    x9        c12                           689
    x9        c34                           494
    x9        c37                           227
    x9        c42                           730
    x9        c49                           666
    x10       obj1                            1
    x10       c3                            481
    x10       c16                           450
    x11       obj1                            1
    x11       c6                            379
    x11       c18                           238
    x11       c35                           877
    x11       c40                           180
    x11       c44                           112
    x11       c45                           894
    x12       obj1                            1
    x12       c35                           757
    x12       c37                           467
    x12       c47                           767
    x13       obj1                            1
    x13       c7                            249
    x13       c10                           607
    x13       c17                           737
    x13       c22                           698
    x13       c30                           153
    x13       c33                           489
    x14       obj1                            1
    x14       c10                           490
    x14       c18                           318
    x14       c45                           880
    x15       obj1                            1
    x15       c23                           296
    x15       c32                           692
    x15       c41                           796
    x16       obj1                            1
    x16       c6                            402
    x16       c26                           126
    x16       c35                           835
    x17       obj1                            1
    x17       c1                            404
    x17       c4                            294
    x17       c29                           666
    x18       obj1                            1
    x18       c15                           844
    x18       c23                           528
    x19       obj1                            1
    x19       c2                            631
    x19       c5                            615
    x19       c10                           487
    x19       c26                           403
    x19       c44                           397
    x19       c45                           498
    x20       obj1                            1
    x20       c6                            132
    x20       c18                           438
    x20       c25                           543
    x20       c31                           184
    x20       c37                           678
    x20       c41                           254
    x20       c45                           926
    x20       c46                           468
    x20       c47                           746
    x21       obj1                            1
    x21       c1                            970
    x21       c2                            181
    x21       c26                           104
    x21       c32                           461
    x21       c43                           965
    x21       c47                           543
    x21       c50                           647
    x22       obj1                            1
    x22       c5                            869
    x22       c7                            197
    x22       c24                           679
    x22       c44                           346
    x22       c48                           378
    x23       obj1                            1
    x23       c16                           361
    x23       c17                           485
    x23       c20                           219
    x23       c37                           300
    x24       obj1                            1
    x24       c6                            514
    x24       c11                           834
    x24       c34                           445
    x24       c36                           934
    x25       obj1                            1
    x25       c1                            428
    x25       c4                            173
    x25       c33                           910
    x25       c35                           657
    x26       obj1                            1
    x26       c7                            379
    x26       c21                           537
    x26       c44                           990
    x26       c45                           433
    x27       obj1                            1
    x27       c10                           130
    x27       c18                           116
    x27       c24                           684
    x27       c33                           675
    x28       obj1                            1
    x28       c10                           458
    x28       c13                           958
    x28       c17                           796
    x28       c19                           608
    x28       c21                           267
    x28       c27                           786
    x28       c34                           789
    x28       c36                           642
    x28       c42                           620
    x28       c43                           681
    x29       obj1                            1
    x29       c16                           815
    x29       c21                           598
    x29       c24                           743
    x29       c37                           935
    x29       c42                           453
    x29       c49                           265
    x30       obj1                            1
    x30       c12                           254
    x30       c14                           605
    x30       c17                           382
    x30       c24                           597
    x30       c38                           777
    x30       c39                           888
    x30       c42                           664
    x31       obj1                            1
    x31       c6                            832
    x31       c15                           583
    x31       c20                           133
    x31       c23                           409
    x31       c25                           974
    x31       c26                           149
    x31       c36                           937
    x31       c38                           458
    x31       c40                           939
    x31       c46                           373
    x31       c48                           539
    x32       obj1                            1
    x32       c1                            619
    x32       c10                           261
    x32       c30                           379
    x32       c43                           348
    x33       obj1                            1
    x33       c18                           400
    x33       c31                           113
    x33       c32                           406
    x33       c40                           620
    x34       obj1                            1
    x34       c5                            122
    x34       c12                           164
    x34       c26                           796
    x34       c27                           171
    x34       c38                           765
    x35       obj1                            1
    x35       c3                            876
    x35       c13                           443
    x35       c19                           646
    x36       obj1                            1
    x36       c3                            715
    x36       c18                           555
    x36       c21                           732
    x36       c28                           188
    x36       c29                           102
    x36       c39                           594
    x37       obj1                            1
    x37       c29                           121
    x38       obj1                            1
    x38       c2                            772
    x38       c4                            527
    x38       c24                           424
    x38       c37                           459
    x38       c38                           823
    x38       c40                           177
    x38       c48                           709
    x39       obj1                            1
    x39       c28                           966
    x39       c41                           959
    x39       c50                           646
    x40       obj1                            1
    x40       c12                           569
    x40       c29                           690
    x40       c30                           825
    x40       c45                           816
    x40       c47                           861
    x41       obj1                            1
    x41       c5                            457
    x41       c7                            318
    x41       c27                           306
    x41       c31                           980
    x41       c46                           602
    x41       c47                           881
    x41       c49                           583
    x42       obj1                            1
    x42       c4                            751
    x42       c19                           120
    x42       c30                           853
    x42       c33                           981
    x42       c43                           915
    x42       c45                           171
    x42       c48                           237
    x43       obj1                            1
    x43       c8                            956
    x43       c25                           198
    x43       c32                           145
    x43       c35                           134
    x43       c38                           547
    x44       obj1                            1
    x44       c5                            635
    x44       c14                           390
    x44       c20                           159
    x44       c21                           421
    x44       c36                           314
    x45       obj1                            1
    x45       c17                           546
    x45       c19                           967
    x45       c20                           870
    x45       c22                           533
    x45       c44                           511
    x46       obj1                            1
    x46       c7                            802
    x46       c27                           661
    x46       c37                           365
    x46       c43                           240
    x46       c48                           909
    x47       obj1                            1
    x47       c4                            715
    x47       c29                           124
    x47       c41                           355
    x47       c44                           323
    x48       obj1                            1
    x48       c4                            178
    x48       c11                           111
    x48       c20                           645
    x48       c38                           373
    x48       c46                           513
    x49       obj1                            1
    x49       c8                            580
    x49       c19                           328
    x49       c46                           327
    x49       c48                           374
    x49       c50                           366
    x50       obj1                            1
    x50       c1                            911
    x50       c4                            384
    x50       c8                            844
    x50       c11                           209
    x50       c15                           903
    x50       c22                           564
    x50       c36                           728
    x50       c44                           247
    MARK0001  'MARKER'                 'INTEND'
RHS
    rhs       c1                           1770
    rhs       c2                           1077
    rhs       c3                           1036
    rhs       c4                           1511
    rhs       c5                           1652
    rhs       c6                           1595
    rhs       c7                           1083
    rhs       c8                           1190
    rhs       c9                            993
    rhs       c10                          1217
    rhs       c11                           577
    rhs       c12                          1730
    rhs       c13                          1045
    rhs       c14                           831
    rhs       c15                          1311
    rhs       c16                           924
    rhs       c17                          1931
    rhs       c18                          1033
    rhs       c19                          1905
    rhs       c20                          1301
    rhs       c21                          1575
    rhs       c22                           898
    rhs       c23                           617
    rhs       c24                          1564
    rhs       c25                           858
    rhs       c26                           789
    rhs       c27                          1048
    rhs       c28                           930
    rhs       c29                          1174
    rhs       c30                          1541
    rhs       c31                          1184
    rhs       c32                          1283
    rhs       c33                          1528
    rhs       c34                          1701
    rhs       c35                          2018
    rhs       c36                          1991
    rhs       c37                          1716
    rhs       c38                          2216
    rhs       c39                          1008
    rhs       c40                          1869
    rhs       c41                          1182
    rhs       c42                          1234
    rhs       c43                          1673
    rhs       c44                          1463
    rhs       c45                          2309
    rhs       c46                          1242
    rhs       c47                          1899
    rhs       c48                          1573
    rhs       c49                          1085
    rhs       c50                          1117
BOUNDS
 LI bnd       x1        0
 LI bnd       x2        0
 LI bnd       x3        0
 LI bnd       x4        0
 LI bnd       x5        0
 LI bnd       x6        0
 LI bnd       x7        0
 LI bnd       x8        0
 LI bnd       x9        0
 LI bnd       x10       0
 LI bnd       x11       0
 LI bnd       x12       0
 LI bnd       x13       0
 LI bnd       x14       0
 LI bnd       x15       0
 LI bnd       x16       0
 LI bnd       x17       0
 LI bnd       x18       0
 LI bnd       x19       0
 LI bnd       x20       0
 LI bnd       x21       0
 LI bnd       x22       0
 LI bnd       x23       0
 LI bnd       x24       0
 LI bnd       x25       0
 LI bnd       x26       0
 LI bnd       x27       0
 LI bnd       x28       0
 LI bnd       x29       0
 LI bnd       x30       0
 LI bnd       x31       0
 LI bnd       x32       0
 LI bnd       x33       0
 LI bnd       x34       0
 LI bnd       x35       0
 LI bnd       x36       0
 LI bnd       x37       0
 LI bnd       x38       0
 LI bnd       x39       0
 LI bnd       x40       0
 LI bnd       x41       0
 LI bnd       x42       0
 LI bnd       x43       0
 LI bnd       x44       0
 LI bnd       x45       0
 LI bnd       x46       0
 LI bnd       x47       0
 LI bnd       x48       0
 LI bnd       x49       0
 LI bnd       x50       0
ENDATA
